data/lp_files/pEFS/71_5.lp
\ Model foo
\ LP format - for model browsing. Use MPS format to capture full model detail.
Minimize
  z
Subject To
 allocateEach[1]: x[1,1] + x[2,1] + x[3,1] + x[4,1] = 1
 allocateEach[2]: x[1,2] + x[2,2] + x[3,2] + x[4,2] = 1
 allocateEach[3]: x[1,3] + x[2,3] + x[3,3] + x[4,3] = 1
 allocateEach[4]: x[1,4] + x[2,4] + x[3,4] + x[4,4] = 1
 allocateEach[5]: x[1,5] + x[2,5] + x[3,5] + x[4,5] = 1
 allocateEach[6]: x[1,6] + x[2,6] + x[3,6] + x[4,6] = 1
 allocateEach[7]: x[1,7] + x[2,7] + x[3,7] + x[4,7] = 1
 allocateEach[8]: x[1,8] + x[2,8] + x[3,8] + x[4,8] = 1
 allocateEach[9]: x[1,9] + x[2,9] + x[3,9] + x[4,9] = 1
 allocateEach[10]: x[1,10] + x[2,10] + x[3,10] + x[4,10] = 1
 allocateEach[11]: x[1,11] + x[2,11] + x[3,11] + x[4,11] = 1
 allocateAllCash: cashProportion[1] + cashProportion[2] + cashProportion[3]
   + cashProportion[4] = 1
 findWorstP[1,2]: z + 0.0493323686114583 cashProportion[1]
   - 0.0493323686114583 cashProportion[2] + 0.1399230415049661 x[1,1]
   + 0.0840952443596658 x[1,2] + 0.0363250674209038 x[1,3]
   + 0.1145004275471946 x[1,4] + 0.0632934289285009 x[1,5]
   + 0.0555975794251135 x[1,6] + 0.0428204959547458 x[1,7]
   + 0.0727487995790305 x[1,8] + 0.0844076826942051 x[1,9]
   + 0.1229198184568835 x[1,10] + 0.1340360455173321 x[1,11]
   - 0.1399230415049661 x[2,1] - 0.0840952443596658 x[2,2]
   - 0.0363250674209038 x[2,3] - 0.1145004275471946 x[2,4]
   - 0.0632934289285009 x[2,5] - 0.0555975794251135 x[2,6]
   - 0.0428204959547458 x[2,7] - 0.0727487995790305 x[2,8]
   - 0.0844076826942051 x[2,9] - 0.1229198184568835 x[2,10]
   - 0.1340360455173321 x[2,11] >= 0
 findWorstP[1,3]: z + 0.0493323686114583 cashProportion[1]
   - 0.0493323686114583 cashProportion[3] + 0.1399230415049661 x[1,1]
   + 0.0840952443596658 x[1,2] + 0.0363250674209038 x[1,3]
   + 0.1145004275471946 x[1,4] + 0.0632934289285009 x[1,5]
   + 0.0555975794251135 x[1,6] + 0.0428204959547458 x[1,7]
   + 0.0727487995790305 x[1,8] + 0.0844076826942051 x[1,9]
   + 0.1229198184568835 x[1,10] + 0.1340360455173321 x[1,11]
   - 0.1399230415049661 x[3,1] - 0.0840952443596658 x[3,2]
   - 0.0363250674209038 x[3,3] - 0.1145004275471946 x[3,4]
   - 0.0632934289285009 x[3,5] - 0.0555975794251135 x[3,6]
   - 0.0428204959547458 x[3,7] - 0.0727487995790305 x[3,8]
   - 0.0844076826942051 x[3,9] - 0.1229198184568835 x[3,10]
   - 0.1340360455173321 x[3,11] >= 0
 findWorstP[1,4]: z + 0.0493323686114583 cashProportion[1]
   - 0.0493323686114583 cashProportion[4] + 0.1399230415049661 x[1,1]
   + 0.0840952443596658 x[1,2] + 0.0363250674209038 x[1,3]
   + 0.1145004275471946 x[1,4] + 0.0632934289285009 x[1,5]
   + 0.0555975794251135 x[1,6] + 0.0428204959547458 x[1,7]
   + 0.0727487995790305 x[1,8] + 0.0844076826942051 x[1,9]
   + 0.1229198184568835 x[1,10] + 0.1340360455173321 x[1,11]
   - 0.1399230415049661 x[4,1] - 0.0840952443596658 x[4,2]
   - 0.0363250674209038 x[4,3] - 0.1145004275471946 x[4,4]
   - 0.0632934289285009 x[4,5] - 0.0555975794251135 x[4,6]
   - 0.0428204959547458 x[4,7] - 0.0727487995790305 x[4,8]
   - 0.0844076826942051 x[4,9] - 0.1229198184568835 x[4,10]
   - 0.1340360455173321 x[4,11] >= 0
 findWorstP[2,1]: z - 0.0589842905172922 cashProportion[1]
   + 0.0589842905172922 cashProportion[2] - 0.0766599162423075 x[1,1]
   - 0.0523780499793555 x[1,2] - 0.1207408426888972 x[1,3]
   - 0.0238886376595034 x[1,4] - 0.0766795776724799 x[1,5]
   - 0.0741432531802363 x[1,6] - 0.0999193881362931 x[1,7]
   - 0.095397259196634 x[1,8] - 0.0252845992017459 x[1,9]
   - 0.1813963547708461 x[1,10] - 0.1145278307544091 x[1,11]
   + 0.0766599162423075 x[2,1] + 0.0523780499793555 x[2,2]
   + 0.1207408426888972 x[2,3] + 0.0238886376595034 x[2,4]
   + 0.0766795776724799 x[2,5] + 0.0741432531802363 x[2,6]
   + 0.0999193881362931 x[2,7] + 0.095397259196634 x[2,8]
   + 0.0252845992017459 x[2,9] + 0.1813963547708461 x[2,10]
   + 0.1145278307544091 x[2,11] >= 0
 findWorstP[2,3]: z + 0.0589842905172922 cashProportion[2]
   - 0.0589842905172922 cashProportion[3] + 0.0766599162423075 x[2,1]
   + 0.0523780499793555 x[2,2] + 0.1207408426888972 x[2,3]
   + 0.0238886376595034 x[2,4] + 0.0766795776724799 x[2,5]
   + 0.0741432531802363 x[2,6] + 0.0999193881362931 x[2,7]
   + 0.095397259196634 x[2,8] + 0.0252845992017459 x[2,9]
   + 0.1813963547708461 x[2,10] + 0.1145278307544091 x[2,11]
   - 0.0766599162423075 x[3,1] - 0.0523780499793555 x[3,2]
   - 0.1207408426888972 x[3,3] - 0.0238886376595034 x[3,4]
   - 0.0766795776724799 x[3,5] - 0.0741432531802363 x[3,6]
   - 0.0999193881362931 x[3,7] - 0.095397259196634 x[3,8]
   - 0.0252845992017459 x[3,9] - 0.1813963547708461 x[3,10]
   - 0.1145278307544091 x[3,11] >= 0
 findWorstP[2,4]: z + 0.0589842905172922 cashProportion[2]
   - 0.0589842905172922 cashProportion[4] + 0.0766599162423075 x[2,1]
   + 0.0523780499793555 x[2,2] + 0.1207408426888972 x[2,3]
   + 0.0238886376595034 x[2,4] + 0.0766795776724799 x[2,5]
   + 0.0741432531802363 x[2,6] + 0.0999193881362931 x[2,7]
   + 0.095397259196634 x[2,8] + 0.0252845992017459 x[2,9]
   + 0.1813963547708461 x[2,10] + 0.1145278307544091 x[2,11]
   - 0.0766599162423075 x[4,1] - 0.0523780499793555 x[4,2]
   - 0.1207408426888972 x[4,3] - 0.0238886376595034 x[4,4]
   - 0.0766795776724799 x[4,5] - 0.0741432531802363 x[4,6]
   - 0.0999193881362931 x[4,7] - 0.095397259196634 x[4,8]
   - 0.0252845992017459 x[4,9] - 0.1813963547708461 x[4,10]
   - 0.1145278307544091 x[4,11] >= 0
 findWorstP[3,1]: z - 0.0542152344808891 cashProportion[1]
   + 0.0542152344808891 cashProportion[3] - 0.094876660341556 x[1,1]
   - 0.17703081232493 x[1,2] - 0.0867985904039035 x[1,3]
   - 0.1396765157675974 x[1,4] - 0.1406523899882534 x[1,5]
   - 0.0793891750248487 x[1,6] - 0.0554441131291226 x[1,7]
   - 0.0852444203487847 x[1,8] - 0.0263124604680582 x[1,9]
   - 0.0184151079786753 x[1,10] - 0.0419445197433812 x[1,11]
   + 0.094876660341556 x[3,1] + 0.17703081232493 x[3,2]
   + 0.0867985904039035 x[3,3] + 0.1396765157675974 x[3,4]
   + 0.1406523899882534 x[3,5] + 0.0793891750248487 x[3,6]
   + 0.0554441131291226 x[3,7] + 0.0852444203487847 x[3,8]
   + 0.0263124604680582 x[3,9] + 0.0184151079786753 x[3,10]
   + 0.0419445197433812 x[3,11] >= 0
 findWorstP[3,2]: z - 0.0542152344808891 cashProportion[2]
   + 0.0542152344808891 cashProportion[3] - 0.094876660341556 x[2,1]
   - 0.17703081232493 x[2,2] - 0.0867985904039035 x[2,3]
   - 0.1396765157675974 x[2,4] - 0.1406523899882534 x[2,5]
   - 0.0793891750248487 x[2,6] - 0.0554441131291226 x[2,7]
   - 0.0852444203487847 x[2,8] - 0.0263124604680582 x[2,9]
   - 0.0184151079786753 x[2,10] - 0.0419445197433812 x[2,11]
   + 0.094876660341556 x[3,1] + 0.17703081232493 x[3,2]
   + 0.0867985904039035 x[3,3] + 0.1396765157675974 x[3,4]
   + 0.1406523899882534 x[3,5] + 0.0793891750248487 x[3,6]
   + 0.0554441131291226 x[3,7] + 0.0852444203487847 x[3,8]
   + 0.0263124604680582 x[3,9] + 0.0184151079786753 x[3,10]
   + 0.0419445197433812 x[3,11] >= 0
 findWorstP[3,4]: z + 0.0542152344808891 cashProportion[3]
   - 0.0542152344808891 cashProportion[4] + 0.094876660341556 x[3,1]
   + 0.17703081232493 x[3,2] + 0.0867985904039035 x[3,3]
   + 0.1396765157675974 x[3,4] + 0.1406523899882534 x[3,5]
   + 0.0793891750248487 x[3,6] + 0.0554441131291226 x[3,7]
   + 0.0852444203487847 x[3,8] + 0.0263124604680582 x[3,9]
   + 0.0184151079786753 x[3,10] + 0.0419445197433812 x[3,11]
   - 0.094876660341556 x[4,1] - 0.17703081232493 x[4,2]
   - 0.0867985904039035 x[4,3] - 0.1396765157675974 x[4,4]
   - 0.1406523899882534 x[4,5] - 0.0793891750248487 x[4,6]
   - 0.0554441131291226 x[4,7] - 0.0852444203487847 x[4,8]
   - 0.0263124604680582 x[4,9] - 0.0184151079786753 x[4,10]
   - 0.0419445197433812 x[4,11] >= 0
 findWorstP[4,1]: z - 0.0732243104710764 cashProportion[1]
   + 0.0732243104710764 cashProportion[4] - 0.0689040761532829 x[1,1]
   - 0.0481571881864779 x[1,2] - 0.2128142543324383 x[1,3]
   - 0.1342689773004637 x[1,4] - 0.00134244569196973 x[1,5]
   - 0.1867708079082255 x[1,6] - 0.0496216743958994 x[1,7]
   - 0.0398096167927752 x[1,8] - 0.0608249938979741 x[1,9]
   - 0.0527459116426654 x[1,10] - 0.0715157432267513 x[1,11]
   + 0.0689040761532829 x[4,1] + 0.0481571881864779 x[4,2]
   + 0.2128142543324383 x[4,3] + 0.1342689773004637 x[4,4]
   + 0.00134244569196973 x[4,5] + 0.1867708079082255 x[4,6]
   + 0.0496216743958994 x[4,7] + 0.0398096167927752 x[4,8]
   + 0.0608249938979741 x[4,9] + 0.0527459116426654 x[4,10]
   + 0.0715157432267513 x[4,11] >= 0
 findWorstP[4,2]: z - 0.0732243104710764 cashProportion[2]
   + 0.0732243104710764 cashProportion[4] - 0.0689040761532829 x[2,1]
   - 0.0481571881864779 x[2,2] - 0.2128142543324383 x[2,3]
   - 0.1342689773004637 x[2,4] - 0.00134244569196973 x[2,5]
   - 0.1867708079082255 x[2,6] - 0.0496216743958994 x[2,7]
   - 0.0398096167927752 x[2,8] - 0.0608249938979741 x[2,9]
   - 0.0527459116426654 x[2,10] - 0.0715157432267513 x[2,11]
   + 0.0689040761532829 x[4,1] + 0.0481571881864779 x[4,2]
   + 0.2128142543324383 x[4,3] + 0.1342689773004637 x[4,4]
   + 0.00134244569196973 x[4,5] + 0.1867708079082255 x[4,6]
   + 0.0496216743958994 x[4,7] + 0.0398096167927752 x[4,8]
   + 0.0608249938979741 x[4,9] + 0.0527459116426654 x[4,10]
   + 0.0715157432267513 x[4,11] >= 0
 findWorstP[4,3]: z - 0.0732243104710764 cashProportion[3]
   + 0.0732243104710764 cashProportion[4] - 0.0689040761532829 x[3,1]
   - 0.0481571881864779 x[3,2] - 0.2128142543324383 x[3,3]
   - 0.1342689773004637 x[3,4] - 0.00134244569196973 x[3,5]
   - 0.1867708079082255 x[3,6] - 0.0496216743958994 x[3,7]
   - 0.0398096167927752 x[3,8] - 0.0608249938979741 x[3,9]
   - 0.0527459116426654 x[3,10] - 0.0715157432267513 x[3,11]
   + 0.0689040761532829 x[4,1] + 0.0481571881864779 x[4,2]
   + 0.2128142543324383 x[4,3] + 0.1342689773004637 x[4,4]
   + 0.00134244569196973 x[4,5] + 0.1867708079082255 x[4,6]
   + 0.0496216743958994 x[4,7] + 0.0398096167927752 x[4,8]
   + 0.0608249938979741 x[4,9] + 0.0527459116426654 x[4,10]
   + 0.0715157432267513 x[4,11] >= 0
Bounds
 z <= 1
 -infinity <= cashProportion[1] <= 1
 -infinity <= cashProportion[2] <= 1
 -infinity <= cashProportion[3] <= 1
 -infinity <= cashProportion[4] <= 1
Binaries
 x[1,1] x[1,2] x[1,3] x[1,4] x[1,5] x[1,6] x[1,7] x[1,8] x[1,9] x[1,10]
 x[1,11] x[2,1] x[2,2] x[2,3] x[2,4] x[2,5] x[2,6] x[2,7] x[2,8] x[2,9]
 x[2,10] x[2,11] x[3,1] x[3,2] x[3,3] x[3,4] x[3,5] x[3,6] x[3,7] x[3,8]
 x[3,9] x[3,10] x[3,11] x[4,1] x[4,2] x[4,3] x[4,4] x[4,5] x[4,6] x[4,7]
 x[4,8] x[4,9] x[4,10] x[4,11]
End
