data/mps_files/q3/71_5.mps
NAME foo
ROWS
 N  OBJ
 E  allocateEach[1]
 E  allocateEach[2]
 E  allocateEach[3]
 E  allocateEach[4]
 E  allocateEach[5]
 E  allocateEach[6]
 E  allocateEach[7]
 E  allocateEach[8]
 E  allocateEach[9]
 E  allocateEach[10]
 E  allocateEach[11]
 E  allocateAllCash
 G  findWorstP[1,2]
 G  findWorstP[1,3]
 G  findWorstP[1,4]
 G  findWorstP[2,1]
 G  findWorstP[2,3]
 G  findWorstP[2,4]
 G  findWorstP[3,1]
 G  findWorstP[3,2]
 G  findWorstP[3,4]
 G  findWorstP[4,1]
 G  findWorstP[4,2]
 G  findWorstP[4,3]
COLUMNS
    z         OBJ       1
    z         findWorstP[1,2]  1
    z         findWorstP[1,3]  1
    z         findWorstP[1,4]  1
    z         findWorstP[2,1]  1
    z         findWorstP[2,3]  1
    z         findWorstP[2,4]  1
    z         findWorstP[3,1]  1
    z         findWorstP[3,2]  1
    z         findWorstP[3,4]  1
    z         findWorstP[4,1]  1
    z         findWorstP[4,2]  1
    z         findWorstP[4,3]  1
    cashProportion[1]  allocateAllCash  1
    cashProportion[1]  findWorstP[1,2]  4.9332368611458254e-02
    cashProportion[1]  findWorstP[1,3]  4.9332368611458254e-02
    cashProportion[1]  findWorstP[1,4]  4.9332368611458254e-02
    cashProportion[1]  findWorstP[2,1]  -5.8984290517292239e-02
    cashProportion[1]  findWorstP[3,1]  -5.4215234480889128e-02
    cashProportion[1]  findWorstP[4,1]  -7.3224310471076387e-02
    cashProportion[2]  allocateAllCash  1
    cashProportion[2]  findWorstP[1,2]  -4.9332368611458254e-02
    cashProportion[2]  findWorstP[2,1]  5.8984290517292239e-02
    cashProportion[2]  findWorstP[2,3]  5.8984290517292239e-02
    cashProportion[2]  findWorstP[2,4]  5.8984290517292239e-02
    cashProportion[2]  findWorstP[3,2]  -5.4215234480889128e-02
    cashProportion[2]  findWorstP[4,2]  -7.3224310471076387e-02
    cashProportion[3]  allocateAllCash  1
    cashProportion[3]  findWorstP[1,3]  -4.9332368611458254e-02
    cashProportion[3]  findWorstP[2,3]  -5.8984290517292239e-02
    cashProportion[3]  findWorstP[3,1]  5.4215234480889128e-02
    cashProportion[3]  findWorstP[3,2]  5.4215234480889128e-02
    cashProportion[3]  findWorstP[3,4]  5.4215234480889128e-02
    cashProportion[3]  findWorstP[4,3]  -7.3224310471076387e-02
    cashProportion[4]  allocateAllCash  1
    cashProportion[4]  findWorstP[1,4]  -4.9332368611458254e-02
    cashProportion[4]  findWorstP[2,4]  -5.8984290517292239e-02
    cashProportion[4]  findWorstP[3,4]  -5.4215234480889128e-02
    cashProportion[4]  findWorstP[4,1]  7.3224310471076387e-02
    cashProportion[4]  findWorstP[4,2]  7.3224310471076387e-02
    cashProportion[4]  findWorstP[4,3]  7.3224310471076387e-02
    MARKER    'MARKER'                 'INTORG'
    x[1,1]    allocateEach[1]  1
    x[1,1]    findWorstP[1,2]  1.3992304150496609e-01
    x[1,1]    findWorstP[1,3]  1.3992304150496609e-01
    x[1,1]    findWorstP[1,4]  1.3992304150496609e-01
    x[1,1]    findWorstP[2,1]  -7.6659916242307488e-02
    x[1,1]    findWorstP[3,1]  -9.4876660341555979e-02
    x[1,1]    findWorstP[4,1]  -6.8904076153282881e-02
    x[1,2]    allocateEach[2]  1
    x[1,2]    findWorstP[1,2]  8.4095244359665838e-02
    x[1,2]    findWorstP[1,3]  8.4095244359665838e-02
    x[1,2]    findWorstP[1,4]  8.4095244359665838e-02
    x[1,2]    findWorstP[2,1]  -5.2378049979355516e-02
    x[1,2]    findWorstP[3,1]  -1.7703081232492998e-01
    x[1,2]    findWorstP[4,1]  -4.8157188186477906e-02
    x[1,3]    allocateEach[3]  1
    x[1,3]    findWorstP[1,2]  3.6325067420903766e-02
    x[1,3]    findWorstP[1,3]  3.6325067420903766e-02
    x[1,3]    findWorstP[1,4]  3.6325067420903766e-02
    x[1,3]    findWorstP[2,1]  -1.2074084268889720e-01
    x[1,3]    findWorstP[3,1]  -0.0867985904039035
    x[1,3]    findWorstP[4,1]  -2.1281425433243834e-01
    x[1,4]    allocateEach[4]  1
    x[1,4]    findWorstP[1,2]  1.1450042754719462e-01
    x[1,4]    findWorstP[1,3]  1.1450042754719462e-01
    x[1,4]    findWorstP[1,4]  1.1450042754719462e-01
    x[1,4]    findWorstP[2,1]  -2.3888637659503355e-02
    x[1,4]    findWorstP[3,1]  -1.3967651576759738e-01
    x[1,4]    findWorstP[4,1]  -1.3426897730046375e-01
    x[1,5]    allocateEach[5]  1
    x[1,5]    findWorstP[1,2]  6.3293428928500942e-02
    x[1,5]    findWorstP[1,3]  6.3293428928500942e-02
    x[1,5]    findWorstP[1,4]  6.3293428928500942e-02
    x[1,5]    findWorstP[2,1]  -7.6679577672479918e-02
    x[1,5]    findWorstP[3,1]  -1.4065238998825336e-01
    x[1,5]    findWorstP[4,1]  -1.3424456919697337e-03
    x[1,6]    allocateEach[6]  1
    x[1,6]    findWorstP[1,2]  5.5597579425113459e-02
    x[1,6]    findWorstP[1,3]  5.5597579425113459e-02
    x[1,6]    findWorstP[1,4]  5.5597579425113459e-02
    x[1,6]    findWorstP[2,1]  -7.4143253180236346e-02
    x[1,6]    findWorstP[3,1]  -7.9389175024848657e-02
    x[1,6]    findWorstP[4,1]  -1.8677080790822551e-01
    x[1,7]    allocateEach[7]  1
    x[1,7]    findWorstP[1,2]  4.2820495954745769e-02
    x[1,7]    findWorstP[1,3]  4.2820495954745769e-02
    x[1,7]    findWorstP[1,4]  4.2820495954745769e-02
    x[1,7]    findWorstP[2,1]  -9.9919388136293058e-02
    x[1,7]    findWorstP[3,1]  -5.5444113129122619e-02
    x[1,7]    findWorstP[4,1]  -4.9621674395899436e-02
    x[1,8]    allocateEach[8]  1
    x[1,8]    findWorstP[1,2]  7.2748799579030451e-02
    x[1,8]    findWorstP[1,3]  7.2748799579030451e-02
    x[1,8]    findWorstP[1,4]  7.2748799579030451e-02
    x[1,8]    findWorstP[2,1]  -9.5397259196633985e-02
    x[1,8]    findWorstP[3,1]  -8.5244420348784683e-02
    x[1,8]    findWorstP[4,1]  -3.9809616792775192e-02
    x[1,9]    allocateEach[9]  1
    x[1,9]    findWorstP[1,2]  8.4407682694205080e-02
    x[1,9]    findWorstP[1,3]  8.4407682694205080e-02
    x[1,9]    findWorstP[1,4]  8.4407682694205080e-02
    x[1,9]    findWorstP[2,1]  -2.5284599201745937e-02
    x[1,9]    findWorstP[3,1]  -2.6312460468058192e-02
    x[1,9]    findWorstP[4,1]  -6.0824993897974119e-02
    x[1,10]   allocateEach[10]  1
    x[1,10]   findWorstP[1,2]  1.2291981845688350e-01
    x[1,10]   findWorstP[1,3]  1.2291981845688350e-01
    x[1,10]   findWorstP[1,4]  1.2291981845688350e-01
    x[1,10]   findWorstP[2,1]  -1.8139635477084606e-01
    x[1,10]   findWorstP[3,1]  -1.8415107978675342e-02
    x[1,10]   findWorstP[4,1]  -5.2745911642665351e-02
    x[1,11]   allocateEach[11]  1
    x[1,11]   findWorstP[1,2]  1.3403604551733209e-01
    x[1,11]   findWorstP[1,3]  1.3403604551733209e-01
    x[1,11]   findWorstP[1,4]  1.3403604551733209e-01
    x[1,11]   findWorstP[2,1]  -1.1452783075440910e-01
    x[1,11]   findWorstP[3,1]  -4.1944519743381224e-02
    x[1,11]   findWorstP[4,1]  -7.1515743226751263e-02
    x[2,1]    allocateEach[1]  1
    x[2,1]    findWorstP[1,2]  -1.3992304150496609e-01
    x[2,1]    findWorstP[2,1]  7.6659916242307488e-02
    x[2,1]    findWorstP[2,3]  7.6659916242307488e-02
    x[2,1]    findWorstP[2,4]  7.6659916242307488e-02
    x[2,1]    findWorstP[3,2]  -9.4876660341555979e-02
    x[2,1]    findWorstP[4,2]  -6.8904076153282881e-02
    x[2,2]    allocateEach[2]  1
    x[2,2]    findWorstP[1,2]  -8.4095244359665838e-02
    x[2,2]    findWorstP[2,1]  5.2378049979355516e-02
    x[2,2]    findWorstP[2,3]  5.2378049979355516e-02
    x[2,2]    findWorstP[2,4]  5.2378049979355516e-02
    x[2,2]    findWorstP[3,2]  -1.7703081232492998e-01
    x[2,2]    findWorstP[4,2]  -4.8157188186477906e-02
    x[2,3]    allocateEach[3]  1
    x[2,3]    findWorstP[1,2]  -3.6325067420903766e-02
    x[2,3]    findWorstP[2,1]  1.2074084268889720e-01
    x[2,3]    findWorstP[2,3]  1.2074084268889720e-01
    x[2,3]    findWorstP[2,4]  1.2074084268889720e-01
    x[2,3]    findWorstP[3,2]  -0.0867985904039035
    x[2,3]    findWorstP[4,2]  -2.1281425433243834e-01
    x[2,4]    allocateEach[4]  1
    x[2,4]    findWorstP[1,2]  -1.1450042754719462e-01
    x[2,4]    findWorstP[2,1]  2.3888637659503355e-02
    x[2,4]    findWorstP[2,3]  2.3888637659503355e-02
    x[2,4]    findWorstP[2,4]  2.3888637659503355e-02
    x[2,4]    findWorstP[3,2]  -1.3967651576759738e-01
    x[2,4]    findWorstP[4,2]  -1.3426897730046375e-01
    x[2,5]    allocateEach[5]  1
    x[2,5]    findWorstP[1,2]  -6.3293428928500942e-02
    x[2,5]    findWorstP[2,1]  7.6679577672479918e-02
    x[2,5]    findWorstP[2,3]  7.6679577672479918e-02
    x[2,5]    findWorstP[2,4]  7.6679577672479918e-02
    x[2,5]    findWorstP[3,2]  -1.4065238998825336e-01
    x[2,5]    findWorstP[4,2]  -1.3424456919697337e-03
    x[2,6]    allocateEach[6]  1
    x[2,6]    findWorstP[1,2]  -5.5597579425113459e-02
    x[2,6]    findWorstP[2,1]  7.4143253180236346e-02
    x[2,6]    findWorstP[2,3]  7.4143253180236346e-02
    x[2,6]    findWorstP[2,4]  7.4143253180236346e-02
    x[2,6]    findWorstP[3,2]  -7.9389175024848657e-02
    x[2,6]    findWorstP[4,2]  -1.8677080790822551e-01
    x[2,7]    allocateEach[7]  1
    x[2,7]    findWorstP[1,2]  -4.2820495954745769e-02
    x[2,7]    findWorstP[2,1]  9.9919388136293058e-02
    x[2,7]    findWorstP[2,3]  9.9919388136293058e-02
    x[2,7]    findWorstP[2,4]  9.9919388136293058e-02
    x[2,7]    findWorstP[3,2]  -5.5444113129122619e-02
    x[2,7]    findWorstP[4,2]  -4.9621674395899436e-02
    x[2,8]    allocateEach[8]  1
    x[2,8]    findWorstP[1,2]  -7.2748799579030451e-02
    x[2,8]    findWorstP[2,1]  9.5397259196633985e-02
    x[2,8]    findWorstP[2,3]  9.5397259196633985e-02
    x[2,8]    findWorstP[2,4]  9.5397259196633985e-02
    x[2,8]    findWorstP[3,2]  -8.5244420348784683e-02
    x[2,8]    findWorstP[4,2]  -3.9809616792775192e-02
    x[2,9]    allocateEach[9]  1
    x[2,9]    findWorstP[1,2]  -8.4407682694205080e-02
    x[2,9]    findWorstP[2,1]  2.5284599201745937e-02
    x[2,9]    findWorstP[2,3]  2.5284599201745937e-02
    x[2,9]    findWorstP[2,4]  2.5284599201745937e-02
    x[2,9]    findWorstP[3,2]  -2.6312460468058192e-02
    x[2,9]    findWorstP[4,2]  -6.0824993897974119e-02
    x[2,10]   allocateEach[10]  1
    x[2,10]   findWorstP[1,2]  -1.2291981845688350e-01
    x[2,10]   findWorstP[2,1]  1.8139635477084606e-01
    x[2,10]   findWorstP[2,3]  1.8139635477084606e-01
    x[2,10]   findWorstP[2,4]  1.8139635477084606e-01
    x[2,10]   findWorstP[3,2]  -1.8415107978675342e-02
    x[2,10]   findWorstP[4,2]  -5.2745911642665351e-02
    x[2,11]   allocateEach[11]  1
    x[2,11]   findWorstP[1,2]  -1.3403604551733209e-01
    x[2,11]   findWorstP[2,1]  1.1452783075440910e-01
    x[2,11]   findWorstP[2,3]  1.1452783075440910e-01
    x[2,11]   findWorstP[2,4]  1.1452783075440910e-01
    x[2,11]   findWorstP[3,2]  -4.1944519743381224e-02
    x[2,11]   findWorstP[4,2]  -7.1515743226751263e-02
    x[3,1]    allocateEach[1]  1
    x[3,1]    findWorstP[1,3]  -1.3992304150496609e-01
    x[3,1]    findWorstP[2,3]  -7.6659916242307488e-02
    x[3,1]    findWorstP[3,1]  9.4876660341555979e-02
    x[3,1]    findWorstP[3,2]  9.4876660341555979e-02
    x[3,1]    findWorstP[3,4]  9.4876660341555979e-02
    x[3,1]    findWorstP[4,3]  -6.8904076153282881e-02
    x[3,2]    allocateEach[2]  1
    x[3,2]    findWorstP[1,3]  -8.4095244359665838e-02
    x[3,2]    findWorstP[2,3]  -5.2378049979355516e-02
    x[3,2]    findWorstP[3,1]  1.7703081232492998e-01
    x[3,2]    findWorstP[3,2]  1.7703081232492998e-01
    x[3,2]    findWorstP[3,4]  1.7703081232492998e-01
    x[3,2]    findWorstP[4,3]  -4.8157188186477906e-02
    x[3,3]    allocateEach[3]  1
    x[3,3]    findWorstP[1,3]  -3.6325067420903766e-02
    x[3,3]    findWorstP[2,3]  -1.2074084268889720e-01
    x[3,3]    findWorstP[3,1]  0.0867985904039035
    x[3,3]    findWorstP[3,2]  0.0867985904039035
    x[3,3]    findWorstP[3,4]  0.0867985904039035
    x[3,3]    findWorstP[4,3]  -2.1281425433243834e-01
    x[3,4]    allocateEach[4]  1
    x[3,4]    findWorstP[1,3]  -1.1450042754719462e-01
    x[3,4]    findWorstP[2,3]  -2.3888637659503355e-02
    x[3,4]    findWorstP[3,1]  1.3967651576759738e-01
    x[3,4]    findWorstP[3,2]  1.3967651576759738e-01
    x[3,4]    findWorstP[3,4]  1.3967651576759738e-01
    x[3,4]    findWorstP[4,3]  -1.3426897730046375e-01
    x[3,5]    allocateEach[5]  1
    x[3,5]    findWorstP[1,3]  -6.3293428928500942e-02
    x[3,5]    findWorstP[2,3]  -7.6679577672479918e-02
    x[3,5]    findWorstP[3,1]  1.4065238998825336e-01
    x[3,5]    findWorstP[3,2]  1.4065238998825336e-01
    x[3,5]    findWorstP[3,4]  1.4065238998825336e-01
    x[3,5]    findWorstP[4,3]  -1.3424456919697337e-03
    x[3,6]    allocateEach[6]  1
    x[3,6]    findWorstP[1,3]  -5.5597579425113459e-02
    x[3,6]    findWorstP[2,3]  -7.4143253180236346e-02
    x[3,6]    findWorstP[3,1]  7.9389175024848657e-02
    x[3,6]    findWorstP[3,2]  7.9389175024848657e-02
    x[3,6]    findWorstP[3,4]  7.9389175024848657e-02
    x[3,6]    findWorstP[4,3]  -1.8677080790822551e-01
    x[3,7]    allocateEach[7]  1
    x[3,7]    findWorstP[1,3]  -4.2820495954745769e-02
    x[3,7]    findWorstP[2,3]  -9.9919388136293058e-02
    x[3,7]    findWorstP[3,1]  5.5444113129122619e-02
    x[3,7]    findWorstP[3,2]  5.5444113129122619e-02
    x[3,7]    findWorstP[3,4]  5.5444113129122619e-02
    x[3,7]    findWorstP[4,3]  -4.9621674395899436e-02
    x[3,8]    allocateEach[8]  1
    x[3,8]    findWorstP[1,3]  -7.2748799579030451e-02
    x[3,8]    findWorstP[2,3]  -9.5397259196633985e-02
    x[3,8]    findWorstP[3,1]  8.5244420348784683e-02
    x[3,8]    findWorstP[3,2]  8.5244420348784683e-02
    x[3,8]    findWorstP[3,4]  8.5244420348784683e-02
    x[3,8]    findWorstP[4,3]  -3.9809616792775192e-02
    x[3,9]    allocateEach[9]  1
    x[3,9]    findWorstP[1,3]  -8.4407682694205080e-02
    x[3,9]    findWorstP[2,3]  -2.5284599201745937e-02
    x[3,9]    findWorstP[3,1]  2.6312460468058192e-02
    x[3,9]    findWorstP[3,2]  2.6312460468058192e-02
    x[3,9]    findWorstP[3,4]  2.6312460468058192e-02
    x[3,9]    findWorstP[4,3]  -6.0824993897974119e-02
    x[3,10]   allocateEach[10]  1
    x[3,10]   findWorstP[1,3]  -1.2291981845688350e-01
    x[3,10]   findWorstP[2,3]  -1.8139635477084606e-01
    x[3,10]   findWorstP[3,1]  1.8415107978675342e-02
    x[3,10]   findWorstP[3,2]  1.8415107978675342e-02
    x[3,10]   findWorstP[3,4]  1.8415107978675342e-02
    x[3,10]   findWorstP[4,3]  -5.2745911642665351e-02
    x[3,11]   allocateEach[11]  1
    x[3,11]   findWorstP[1,3]  -1.3403604551733209e-01
    x[3,11]   findWorstP[2,3]  -1.1452783075440910e-01
    x[3,11]   findWorstP[3,1]  4.1944519743381224e-02
    x[3,11]   findWorstP[3,2]  4.1944519743381224e-02
    x[3,11]   findWorstP[3,4]  4.1944519743381224e-02
    x[3,11]   findWorstP[4,3]  -7.1515743226751263e-02
    x[4,1]    allocateEach[1]  1
    x[4,1]    findWorstP[1,4]  -1.3992304150496609e-01
    x[4,1]    findWorstP[2,4]  -7.6659916242307488e-02
    x[4,1]    findWorstP[3,4]  -9.4876660341555979e-02
    x[4,1]    findWorstP[4,1]  6.8904076153282881e-02
    x[4,1]    findWorstP[4,2]  6.8904076153282881e-02
    x[4,1]    findWorstP[4,3]  6.8904076153282881e-02
    x[4,2]    allocateEach[2]  1
    x[4,2]    findWorstP[1,4]  -8.4095244359665838e-02
    x[4,2]    findWorstP[2,4]  -5.2378049979355516e-02
    x[4,2]    findWorstP[3,4]  -1.7703081232492998e-01
    x[4,2]    findWorstP[4,1]  4.8157188186477906e-02
    x[4,2]    findWorstP[4,2]  4.8157188186477906e-02
    x[4,2]    findWorstP[4,3]  4.8157188186477906e-02
    x[4,3]    allocateEach[3]  1
    x[4,3]    findWorstP[1,4]  -3.6325067420903766e-02
    x[4,3]    findWorstP[2,4]  -1.2074084268889720e-01
    x[4,3]    findWorstP[3,4]  -0.0867985904039035
    x[4,3]    findWorstP[4,1]  2.1281425433243834e-01
    x[4,3]    findWorstP[4,2]  2.1281425433243834e-01
    x[4,3]    findWorstP[4,3]  2.1281425433243834e-01
    x[4,4]    allocateEach[4]  1
    x[4,4]    findWorstP[1,4]  -1.1450042754719462e-01
    x[4,4]    findWorstP[2,4]  -2.3888637659503355e-02
    x[4,4]    findWorstP[3,4]  -1.3967651576759738e-01
    x[4,4]    findWorstP[4,1]  1.3426897730046375e-01
    x[4,4]    findWorstP[4,2]  1.3426897730046375e-01
    x[4,4]    findWorstP[4,3]  1.3426897730046375e-01
    x[4,5]    allocateEach[5]  1
    x[4,5]    findWorstP[1,4]  -6.3293428928500942e-02
    x[4,5]    findWorstP[2,4]  -7.6679577672479918e-02
    x[4,5]    findWorstP[3,4]  -1.4065238998825336e-01
    x[4,5]    findWorstP[4,1]  1.3424456919697337e-03
    x[4,5]    findWorstP[4,2]  1.3424456919697337e-03
    x[4,5]    findWorstP[4,3]  1.3424456919697337e-03
    x[4,6]    allocateEach[6]  1
    x[4,6]    findWorstP[1,4]  -5.5597579425113459e-02
    x[4,6]    findWorstP[2,4]  -7.4143253180236346e-02
    x[4,6]    findWorstP[3,4]  -7.9389175024848657e-02
    x[4,6]    findWorstP[4,1]  1.8677080790822551e-01
    x[4,6]    findWorstP[4,2]  1.8677080790822551e-01
    x[4,6]    findWorstP[4,3]  1.8677080790822551e-01
    x[4,7]    allocateEach[7]  1
    x[4,7]    findWorstP[1,4]  -4.2820495954745769e-02
    x[4,7]    findWorstP[2,4]  -9.9919388136293058e-02
    x[4,7]    findWorstP[3,4]  -5.5444113129122619e-02
    x[4,7]    findWorstP[4,1]  4.9621674395899436e-02
    x[4,7]    findWorstP[4,2]  4.9621674395899436e-02
    x[4,7]    findWorstP[4,3]  4.9621674395899436e-02
    x[4,8]    allocateEach[8]  1
    x[4,8]    findWorstP[1,4]  -7.2748799579030451e-02
    x[4,8]    findWorstP[2,4]  -9.5397259196633985e-02
    x[4,8]    findWorstP[3,4]  -8.5244420348784683e-02
    x[4,8]    findWorstP[4,1]  3.9809616792775192e-02
    x[4,8]    findWorstP[4,2]  3.9809616792775192e-02
    x[4,8]    findWorstP[4,3]  3.9809616792775192e-02
    x[4,9]    allocateEach[9]  1
    x[4,9]    findWorstP[1,4]  -8.4407682694205080e-02
    x[4,9]    findWorstP[2,4]  -2.5284599201745937e-02
    x[4,9]    findWorstP[3,4]  -2.6312460468058192e-02
    x[4,9]    findWorstP[4,1]  6.0824993897974119e-02
    x[4,9]    findWorstP[4,2]  6.0824993897974119e-02
    x[4,9]    findWorstP[4,3]  6.0824993897974119e-02
    x[4,10]   allocateEach[10]  1
    x[4,10]   findWorstP[1,4]  -1.2291981845688350e-01
    x[4,10]   findWorstP[2,4]  -1.8139635477084606e-01
    x[4,10]   findWorstP[3,4]  -1.8415107978675342e-02
    x[4,10]   findWorstP[4,1]  5.2745911642665351e-02
    x[4,10]   findWorstP[4,2]  5.2745911642665351e-02
    x[4,10]   findWorstP[4,3]  5.2745911642665351e-02
    x[4,11]   allocateEach[11]  1
    x[4,11]   findWorstP[1,4]  -1.3403604551733209e-01
    x[4,11]   findWorstP[2,4]  -1.1452783075440910e-01
    x[4,11]   findWorstP[3,4]  -4.1944519743381224e-02
    x[4,11]   findWorstP[4,1]  7.1515743226751263e-02
    x[4,11]   findWorstP[4,2]  7.1515743226751263e-02
    x[4,11]   findWorstP[4,3]  7.1515743226751263e-02
    MARKER    'MARKER'                 'INTEND'
RHS
    RHS1      allocateEach[1]  1
    RHS1      allocateEach[2]  1
    RHS1      allocateEach[3]  1
    RHS1      allocateEach[4]  1
    RHS1      allocateEach[5]  1
    RHS1      allocateEach[6]  1
    RHS1      allocateEach[7]  1
    RHS1      allocateEach[8]  1
    RHS1      allocateEach[9]  1
    RHS1      allocateEach[10]  1
    RHS1      allocateEach[11]  1
    RHS1      allocateAllCash  1
BOUNDS
 UP BND1      z         1
 MI BND1      cashProportion[1]
 UP BND1      cashProportion[1]  1
 MI BND1      cashProportion[2]
 UP BND1      cashProportion[2]  1
 MI BND1      cashProportion[3]
 UP BND1      cashProportion[3]  1
 MI BND1      cashProportion[4]
 UP BND1      cashProportion[4]  1
 BV BND1      x[1,1]  
 BV BND1      x[1,2]  
 BV BND1      x[1,3]  
 BV BND1      x[1,4]  
 BV BND1      x[1,5]  
 BV BND1      x[1,6]  
 BV BND1      x[1,7]  
 BV BND1      x[1,8]  
 BV BND1      x[1,9]  
 BV BND1      x[1,10] 
 BV BND1      x[1,11] 
 BV BND1      x[2,1]  
 BV BND1      x[2,2]  
 BV BND1      x[2,3]  
 BV BND1      x[2,4]  
 BV BND1      x[2,5]  
 BV BND1      x[2,6]  
 BV BND1      x[2,7]  
 BV BND1      x[2,8]  
 BV BND1      x[2,9]  
 BV BND1      x[2,10] 
 BV BND1      x[2,11] 
 BV BND1      x[3,1]  
 BV BND1      x[3,2]  
 BV BND1      x[3,3]  
 BV BND1      x[3,4]  
 BV BND1      x[3,5]  
 BV BND1      x[3,6]  
 BV BND1      x[3,7]  
 BV BND1      x[3,8]  
 BV BND1      x[3,9]  
 BV BND1      x[3,10] 
 BV BND1      x[3,11] 
 BV BND1      x[4,1]  
 BV BND1      x[4,2]  
 BV BND1      x[4,3]  
 BV BND1      x[4,4]  
 BV BND1      x[4,5]  
 BV BND1      x[4,6]  
 BV BND1      x[4,7]  
 BV BND1      x[4,8]  
 BV BND1      x[4,9]  
 BV BND1      x[4,10] 
 BV BND1      x[4,11] 
ENDATA
